p cnf 1688
-24 -528
-25 -531
-26 -534
-27 -537
-28 -540
-29 -543
-30 -546
-31 -549
-32 -552
-33 -555
-34 -558
-35 -561
-36 -564
-37 -567
-38 -570
-39 -573
-40 -576
-41 -579
-42 -582
-43 -585
-44 -588
-45 -591
-46 -594
-47 595
-48 596
-49 597
-50 598
-51 599
-52 600
-53 601
-54 602
-55 603
-56 604
-57 605
-58 606
-59 607
-60 608
-61 -25
-61 -26
25 26 61
-62 -27
-62 -28
27 28 62
-63 -29
-63 -30
29 30 63
-64 -31
-64 -32
31 32 64
-65 -33
-65 -34
33 34 65
-66 -35
-66 -36
35 36 66
-67 -37
-67 -38
37 38 67
-68 -39
-68 -40
39 40 68
-69 -41
-69 -42
41 42 69
-70 -43
-70 -44
43 44 70
-71 -45
-71 -46
45 46 71
-72 -47
-72 -48
47 48 72
-73 -49
-73 -50
49 50 73
-74 -51
-74 -52
51 52 74
-75 -53
-75 -54
53 54 75
-76 -55
-76 -56
55 56 76
-77 -57
-77 -58
57 58 77
-78 -59
-78 -60
59 60 78
-79 61
-79 62
-61 -62 79
-80 63
-80 64
-63 -64 80
-81 65
-81 66
-65 -66 81
-82 67
-82 68
-67 -68 82
-83 69
-83 70
-69 -70 83
-84 71
-84 72
-71 -72 84
-85 73
-85 74
-73 -74 85
-86 75
-86 76
-75 -76 86
-87 77
-87 78
-77 -78 87
-88 79
-88 80
-79 -80 88
-89 81
-89 82
-81 -82 89
-90 83
-90 84
-83 -84 90
-91 85
-91 86
-85 -86 91
-92 88
-92 89
-88 -89 92
-93 90
-93 91
-90 -91 93
-94 92
-94 93
-92 -93 94
-95 87
-95 94
-87 -94 95
-96 -24
-96 25
24 -25 96
-97 24
-97 -25
-24 25 97
-98 -96
-98 -97
96 97 98
-99 24
-99 25
-24 -25 99
-100 -24
-100 -98
24 98 100
-101 24
-101 98
-24 -98 101
-102 -100
-102 -101
100 101 102
-103 24
-103 -98
-24 98 103
-104 -99
-104 -103
99 103 104
-105 -25
-105 26
25 -26 105
-106 25
-106 -26
-25 26 106
-107 -105
-107 -106
105 106 107
-108 25
-108 26
-25 -26 108
-109 104
-109 -107
-104 107 109
-110 -104
-110 107
104 -107 110
-111 -109
-111 -110
109 110 111
-112 -104
-112 -107
104 107 112
-113 -108
-113 -112
108 112 113
-114 -26
-114 27
26 -27 114
-115 26
-115 -27
-26 27 115
-116 -114
-116 -115
114 115 116
-117 26
-117 27
-26 -27 117
-118 113
-118 -116
-113 116 118
-119 -113
-119 116
113 -116 119
-120 -118
-120 -119
118 119 120
-121 -113
-121 -116
113 116 121
-122 -117
-122 -121
117 121 122
-123 -27
-123 28
27 -28 123
-124 27
-124 -28
-27 28 124
-125 -123
-125 -124
123 124 125
-126 27
-126 28
-27 -28 126
-127 122
-127 -125
-122 125 127
-128 -122
-128 125
122 -125 128
-129 -127
-129 -128
127 128 129
-130 -122
-130 -125
122 125 130
-131 -126
-131 -130
126 130 131
-132 -28
-132 29
28 -29 132
-133 28
-133 -29
-28 29 133
-134 -132
-134 -133
132 133 134
-135 28
-135 29
-28 -29 135
-136 131
-136 -134
-131 134 136
-137 -131
-137 134
131 -134 137
-138 -136
-138 -137
136 137 138
-139 -131
-139 -134
131 134 139
-140 -135
-140 -139
135 139 140
-141 -29
-141 30
29 -30 141
-142 29
-142 -30
-29 30 142
-143 -141
-143 -142
141 142 143
-144 29
-144 30
-29 -30 144
-145 140
-145 -143
-140 143 145
-146 -140
-146 143
140 -143 146
-147 -145
-147 -146
145 146 147
-148 -140
-148 -143
140 143 148
-149 -144
-149 -148
144 148 149
-150 -30
-150 31
30 -31 150
-151 30
-151 -31
-30 31 151
-152 -150
-152 -151
150 151 152
-153 30
-153 31
-30 -31 153
-154 149
-154 -152
-149 152 154
-155 -149
-155 152
149 -152 155
-156 -154
-156 -155
154 155 156
-157 -149
-157 -152
149 152 157
-158 -153
-158 -157
153 157 158
-159 -31
-159 32
31 -32 159
-160 31
-160 -32
-31 32 160
-161 -159
-161 -160
159 160 161
-162 31
-162 32
-31 -32 162
-163 158
-163 -161
-158 161 163
-164 -158
-164 161
158 -161 164
-165 -163
-165 -164
163 164 165
-166 -158
-166 -161
158 161 166
-167 -162
-167 -166
162 166 167
-168 -32
-168 33
32 -33 168
-169 32
-169 -33
-32 33 169
-170 -168
-170 -169
168 169 170
-171 32
-171 33
-32 -33 171
-172 167
-172 -170
-167 170 172
-173 -167
-173 170
167 -170 173
-174 -172
-174 -173
172 173 174
-175 -167
-175 -170
167 170 175
-176 -171
-176 -175
171 175 176
-177 -33
-177 34
33 -34 177
-178 33
-178 -34
-33 34 178
-179 -177
-179 -178
177 178 179
-180 33
-180 34
-33 -34 180
-181 176
-181 -179
-176 179 181
-182 -176
-182 179
176 -179 182
-183 -181
-183 -182
181 182 183
-184 -176
-184 -179
176 179 184
-185 -180
-185 -184
180 184 185
-186 -34
-186 35
34 -35 186
-187 34
-187 -35
-34 35 187
-188 -186
-188 -187
186 187 188
-189 34
-189 35
-34 -35 189
-190 185
-190 -188
-185 188 190
-191 -185
-191 188
185 -188 191
-192 -190
-192 -191
190 191 192
-193 -185
-193 -188
185 188 193
-194 -189
-194 -193
189 193 194
-195 -35
-195 36
35 -36 195
-196 35
-196 -36
-35 36 196
-197 -195
-197 -196
195 196 197
-198 35
-198 36
-35 -36 198
-199 194
-199 -197
-194 197 199
-200 -194
-200 197
194 -197 200
-201 -199
-201 -200
199 200 201
-202 -194
-202 -197
194 197 202
-203 -198
-203 -202
198 202 203
-204 -36
-204 37
36 -37 204
-205 36
-205 -37
-36 37 205
-206 -204
-206 -205
204 205 206
-207 36
-207 37
-36 -37 207
-208 203
-208 -206
-203 206 208
-209 -203
-209 206
203 -206 209
-210 -208
-210 -209
208 209 210
-211 -203
-211 -206
203 206 211
-212 -207
-212 -211
207 211 212
-213 -37
-213 38
37 -38 213
-214 37
-214 -38
-37 38 214
-215 -213
-215 -214
213 214 215
-216 37
-216 38
-37 -38 216
-217 212
-217 -215
-212 215 217
-218 -212
-218 215
212 -215 218
-219 -217
-219 -218
217 218 219
-220 -212
-220 -215
212 215 220
-221 -216
-221 -220
216 220 221
-222 -38
-222 39
38 -39 222
-223 38
-223 -39
-38 39 223
-224 -222
-224 -223
222 223 224
-225 38
-225 39
-38 -39 225
-226 221
-226 -224
-221 224 226
-227 -221
-227 224
221 -224 227
-228 -226
-228 -227
226 227 228
-229 -221
-229 -224
221 224 229
-230 -225
-230 -229
225 229 230
-231 -39
-231 40
39 -40 231
-232 39
-232 -40
-39 40 232
-233 -231
-233 -232
231 232 233
-234 39
-234 40
-39 -40 234
-235 230
-235 -233
-230 233 235
-236 -230
-236 233
230 -233 236
-237 -235
-237 -236
235 236 237
-238 -230
-238 -233
230 233 238
-239 -234
-239 -238
234 238 239
-240 -40
-240 41
40 -41 240
-241 40
-241 -41
-40 41 241
-242 -240
-242 -241
240 241 242
-243 40
-243 41
-40 -41 243
-244 239
-244 -242
-239 242 244
-245 -239
-245 242
239 -242 245
-246 -244
-246 -245
244 245 246
-247 -239
-247 -242
239 242 247
-248 -243
-248 -247
243 247 248
-249 -41
-249 42
41 -42 249
-250 41
-250 -42
-41 42 250
-251 -249
-251 -250
249 250 251
-252 41
-252 42
-41 -42 252
-253 248
-253 -251
-248 251 253
-254 -248
-254 251
248 -251 254
-255 -253
-255 -254
253 254 255
-256 -248
-256 -251
248 251 256
-257 -252
-257 -256
252 256 257
-258 -42
-258 43
42 -43 258
-259 42
-259 -43
-42 43 259
-260 -258
-260 -259
258 259 260
-261 42
-261 43
-42 -43 261
-262 257
-262 -260
-257 260 262
-263 -257
-263 260
257 -260 263
-264 -262
-264 -263
262 263 264
-265 -257
-265 -260
257 260 265
-266 -261
-266 -265
261 265 266
-267 -43
-267 44
43 -44 267
-268 43
-268 -44
-43 44 268
-269 -267
-269 -268
267 268 269
-270 43
-270 44
-43 -44 270
-271 266
-271 -269
-266 269 271
-272 -266
-272 269
266 -269 272
-273 -271
-273 -272
271 272 273
-274 -266
-274 -269
266 269 274
-275 -270
-275 -274
270 274 275
-276 -44
-276 45
44 -45 276
-277 44
-277 -45
-44 45 277
-278 -276
-278 -277
276 277 278
-279 44
-279 45
-44 -45 279
-280 275
-280 -278
-275 278 280
-281 -275
-281 278
275 -278 281
-282 -280
-282 -281
280 281 282
-283 -275
-283 -278
275 278 283
-284 -279
-284 -283
279 283 284
-285 -45
-285 46
45 -46 285
-286 45
-286 -46
-45 46 286
-287 -285
-287 -286
285 286 287
-288 45
-288 46
-45 -46 288
-289 284
-289 -287
-284 287 289
-290 -284
-290 287
284 -287 290
-291 -289
-291 -290
289 290 291
-292 -284
-292 -287
284 287 292
-293 -288
-293 -292
288 292 293
-294 -46
-294 47
46 -47 294
-295 46
-295 -47
-46 47 295
-296 -294
-296 -295
294 295 296
-297 46
-297 47
-46 -47 297
-298 293
-298 -296
-293 296 298
-299 -293
-299 296
293 -296 299
-300 -298
-300 -299
298 299 300
-301 -293
-301 -296
293 296 301
-302 -297
-302 -301
297 301 302
-303 -47
-303 48
47 -48 303
-304 47
-304 -48
-47 48 304
-305 -303
-305 -304
303 304 305
-306 47
-306 48
-47 -48 306
-307 302
-307 -305
-302 305 307
-308 -302
-308 305
302 -305 308
-309 -307
-309 -308
307 308 309
-310 -302
-310 -305
302 305 310
-311 -306
-311 -310
306 310 311
-312 -48
-312 49
48 -49 312
-313 48
-313 -49
-48 49 313
-314 -312
-314 -313
312 313 314
-315 48
-315 49
-48 -49 315
-316 311
-316 -314
-311 314 316
-317 -311
-317 314
311 -314 317
-318 -316
-318 -317
316 317 318
-319 -311
-319 -314
311 314 319
-320 -315
-320 -319
315 319 320
-321 -49
-321 50
49 -50 321
-322 49
-322 -50
-49 50 322
-323 -321
-323 -322
321 322 323
-324 49
-324 50
-49 -50 324
-325 320
-325 -323
-320 323 325
-326 -320
-326 323
320 -323 326
-327 -325
-327 -326
325 326 327
-328 -320
-328 -323
320 323 328
-329 -324
-329 -328
324 328 329
-330 -50
-330 51
50 -51 330
-331 50
-331 -51
-50 51 331
-332 -330
-332 -331
330 331 332
-333 50
-333 51
-50 -51 333
-334 329
-334 -332
-329 332 334
-335 -329
-335 332
329 -332 335
-336 -334
-336 -335
334 335 336
-337 -329
-337 -332
329 332 337
-338 -333
-338 -337
333 337 338
-339 -51
-339 52
51 -52 339
-340 51
-340 -52
-51 52 340
-341 -339
-341 -340
339 340 341
-342 51
-342 52
-51 -52 342
-343 338
-343 -341
-338 341 343
-344 -338
-344 341
338 -341 344
-345 -343
-345 -344
343 344 345
-346 -338
-346 -341
338 341 346
-347 -342
-347 -346
342 346 347
-348 -52
-348 53
52 -53 348
-349 52
-349 -53
-52 53 349
-350 -348
-350 -349
348 349 350
-351 52
-351 53
-52 -53 351
-352 347
-352 -350
-347 350 352
-353 -347
-353 350
347 -350 353
-354 -352
-354 -353
352 353 354
-355 -347
-355 -350
347 350 355
-356 -351
-356 -355
351 355 356
-357 -53
-357 54
53 -54 357
-358 53
-358 -54
-53 54 358
-359 -357
-359 -358
357 358 359
-360 53
-360 54
-53 -54 360
-361 356
-361 -359
-356 359 361
-362 -356
-362 359
356 -359 362
-363 -361
-363 -362
361 362 363
-364 -356
-364 -359
356 359 364
-365 -360
-365 -364
360 364 365
-366 -54
-366 55
54 -55 366
-367 54
-367 -55
-54 55 367
-368 -366
-368 -367
366 367 368
-369 54
-369 55
-54 -55 369
-370 365
-370 -368
-365 368 370
-371 -365
-371 368
365 -368 371
-372 -370
-372 -371
370 371 372
-373 -365
-373 -368
365 368 373
-374 -369
-374 -373
369 373 374
-375 -55
-375 56
55 -56 375
-376 55
-376 -56
-55 56 376
-377 -375
-377 -376
375 376 377
-378 55
-378 56
-55 -56 378
-379 374
-379 -377
-374 377 379
-380 -374
-380 377
374 -377 380
-381 -379
-381 -380
379 380 381
-382 -374
-382 -377
374 377 382
-383 -378
-383 -382
378 382 383
-384 -56
-384 57
56 -57 384
-385 56
-385 -57
-56 57 385
-386 -384
-386 -385
384 385 386
-387 56
-387 57
-56 -57 387
-388 383
-388 -386
-383 386 388
-389 -383
-389 386
383 -386 389
-390 -388
-390 -389
388 389 390
-391 -383
-391 -386
383 386 391
-392 -387
-392 -391
387 391 392
-393 -57
-393 58
57 -58 393
-394 57
-394 -58
-57 58 394
-395 -393
-395 -394
393 394 395
-396 57
-396 58
-57 -58 396
-397 392
-397 -395
-392 395 397
-398 -392
-398 395
392 -395 398
-399 -397
-399 -398
397 398 399
-400 -392
-400 -395
392 395 400
-401 -396
-401 -400
396 400 401
-402 -58
-402 59
58 -59 402
-403 58
-403 -59
-58 59 403
-404 -402
-404 -403
402 403 404
-405 58
-405 59
-58 -59 405
-406 401
-406 -404
-401 404 406
-407 -401
-407 404
401 -404 407
-408 -406
-408 -407
406 407 408
-409 -401
-409 -404
401 404 409
-410 -405
-410 -409
405 409 410
-411 -59
-411 60
59 -60 411
-412 59
-412 -60
-59 60 412
-413 -411
-413 -412
411 412 413
-414 59
-414 60
-59 -60 414
-415 410
-415 -413
-410 413 415
-416 -410
-416 413
410 -413 416
-417 -415
-417 -416
415 416 417
-418 -410
-418 -413
410 413 418
-419 -414
-419 -418
414 418 419
-420 24
-420 -102
-24 102 420
-421 -24
-421 26
24 -26 421
-422 -420
-422 -421
420 421 422
-423 24
-423 -111
-24 111 423
-424 -24
-424 27
24 -27 424
-425 -423
-425 -424
423 424 425
-426 24
-426 -120
-24 120 426
-427 -24
-427 28
24 -28 427
-428 -426
-428 -427
426 427 428
-429 24
-429 -129
-24 129 429
-430 -24
-430 29
24 -29 430
-431 -429
-431 -430
429 430 431
-432 24
-432 -138
-24 138 432
-433 -24
-433 30
24 -30 433
-434 -432
-434 -433
432 433 434
-435 24
-435 -147
-24 147 435
-436 -24
-436 31
24 -31 436
-437 -435
-437 -436
435 436 437
-438 24
-438 -156
-24 156 438
-439 -24
-439 32
24 -32 439
-440 -438
-440 -439
438 439 440
-441 24
-441 -165
-24 165 441
-442 -24
-442 33
24 -33 442
-443 -441
-443 -442
441 442 443
-444 24
-444 -174
-24 174 444
-445 -24
-445 34
24 -34 445
-446 -444
-446 -445
444 445 446
-447 24
-447 -183
-24 183 447
-448 -24
-448 35
24 -35 448
-449 -447
-449 -448
447 448 449
-450 24
-450 -192
-24 192 450
-451 -24
-451 36
24 -36 451
-452 -450
-452 -451
450 451 452
-453 24
-453 -201
-24 201 453
-454 -24
-454 37
24 -37 454
-455 -453
-455 -454
453 454 455
-456 24
-456 -210
-24 210 456
-457 -24
-457 38
24 -38 457
-458 -456
-458 -457
456 457 458
-459 24
-459 -219
-24 219 459
-460 -24
-460 39
24 -39 460
-461 -459
-461 -460
459 460 461
-462 24
-462 -228
-24 228 462
-463 -24
-463 40
24 -40 463
-464 -462
-464 -463
462 463 464
-465 24
-465 -237
-24 237 465
-466 -24
-466 41
24 -41 466
-467 -465
-467 -466
465 466 467
-468 24
-468 -246
-24 246 468
-469 -24
-469 42
24 -42 469
-470 -468
-470 -469
468 469 470
-471 24
-471 -255
-24 255 471
-472 -24
-472 43
24 -43 472
-473 -471
-473 -472
471 472 473
-474 24
-474 -264
-24 264 474
-475 -24
-475 44
24 -44 475
-476 -474
-476 -475
474 475 476
-477 24
-477 -273
-24 273 477
-478 -24
-478 45
24 -45 478
-479 -477
-479 -478
477 478 479
-480 24
-480 -282
-24 282 480
-481 -24
-481 46
24 -46 481
-482 -480
-482 -481
480 481 482
-483 24
-483 -291
-24 291 483
-484 -24
-484 47
24 -47 484
-485 -483
-485 -484
483 484 485
-486 24
-486 -300
-24 300 486
-487 -24
-487 48
24 -48 487
-488 -486
-488 -487
486 487 488
-489 24
-489 -309
-24 309 489
-490 -24
-490 49
24 -49 490
-491 -489
-491 -490
489 490 491
-492 24
-492 -318
-24 318 492
-493 -24
-493 50
24 -50 493
-494 -492
-494 -493
492 493 494
-495 24
-495 -327
-24 327 495
-496 -24
-496 51
24 -51 496
-497 -495
-497 -496
495 496 497
-498 24
-498 -336
-24 336 498
-499 -24
-499 52
24 -52 499
-500 -498
-500 -499
498 499 500
-501 24
-501 -345
-24 345 501
-502 -24
-502 53
24 -53 502
-503 -501
-503 -502
501 502 503
-504 24
-504 -354
-24 354 504
-505 -24
-505 54
24 -54 505
-506 -504
-506 -505
504 505 506
-507 24
-507 -363
-24 363 507
-508 -24
-508 55
24 -55 508
-509 -507
-509 -508
507 508 509
-510 24
-510 -372
-24 372 510
-511 -24
-511 56
24 -56 511
-512 -510
-512 -511
510 511 512
-513 24
-513 -381
-24 381 513
-514 -24
-514 57
24 -57 514
-515 -513
-515 -514
513 514 515
-516 24
-516 -390
-24 390 516
-517 -24
-517 58
24 -58 517
-518 -516
-518 -517
516 517 518
-519 24
-519 -399
-24 399 519
-520 -24
-520 59
24 -59 520
-521 -519
-521 -520
519 520 521
-522 24
-522 -408
-24 408 522
-523 -24
-523 60
24 -60 523
-524 -522
-524 -523
522 523 524
-525 24
-525 -417
-24 417 525
-526 1
-526 95
-1 -95 526
-527 -95
-527 96
95 -96 527
-528 -526
-528 -527
526 527 528
-529 2
-529 95
-2 -95 529
-530 -95
-530 -422
95 422 530
-531 -529
-531 -530
529 530 531
-532 3
-532 95
-3 -95 532
-533 -95
-533 -425
95 425 533
-534 -532
-534 -533
532 533 534
-535 4
-535 95
-4 -95 535
-536 -95
-536 -428
95 428 536
-537 -535
-537 -536
535 536 537
-538 5
-538 95
-5 -95 538
-539 -95
-539 -431
95 431 539
-540 -538
-540 -539
538 539 540
-541 6
-541 95
-6 -95 541
-542 -95
-542 -434
95 434 542
-543 -541
-543 -542
541 542 543
-544 7
-544 95
-7 -95 544
-545 -95
-545 -437
95 437 545
-546 -544
-546 -545
544 545 546
-547 8
-547 95
-8 -95 547
-548 -95
-548 -440
95 440 548
-549 -547
-549 -548
547 548 549
-550 9
-550 95
-9 -95 550
-551 -95
-551 -443
95 443 551
-552 -550
-552 -551
550 551 552
-553 10
-553 95
-10 -95 553
-554 -95
-554 -446
95 446 554
-555 -553
-555 -554
553 554 555
-556 11
-556 95
-11 -95 556
-557 -95
-557 -449
95 449 557
-558 -556
-558 -557
556 557 558
-559 12
-559 95
-12 -95 559
-560 -95
-560 -452
95 452 560
-561 -559
-561 -560
559 560 561
-562 13
-562 95
-13 -95 562
-563 -95
-563 -455
95 455 563
-564 -562
-564 -563
562 563 564
-565 14
-565 95
-14 -95 565
-566 -95
-566 -458
95 458 566
-567 -565
-567 -566
565 566 567
-568 15
-568 95
-15 -95 568
-569 -95
-569 -461
95 461 569
-570 -568
-570 -569
568 569 570
-571 16
-571 95
-16 -95 571
-572 -95
-572 -464
95 464 572
-573 -571
-573 -572
571 572 573
-574 17
-574 95
-17 -95 574
-575 -95
-575 -467
95 467 575
-576 -574
-576 -575
574 575 576
-577 18
-577 95
-18 -95 577
-578 -95
-578 -470
95 470 578
-579 -577
-579 -578
577 578 579
-580 19
-580 95
-19 -95 580
-581 -95
-581 -473
95 473 581
-582 -580
-582 -581
580 581 582
-583 20
-583 95
-20 -95 583
-584 -95
-584 -476
95 476 584
-585 -583
-585 -584
583 584 585
-586 21
-586 95
-21 -95 586
-587 -95
-587 -479
95 479 587
-588 -586
-588 -587
586 587 588
-589 22
-589 95
-22 -95 589
-590 -95
-590 -482
95 482 590
-591 -589
-591 -590
589 590 591
-592 23
-592 95
-23 -95 592
-593 -95
-593 -485
95 485 593
-594 -592
-594 -593
592 593 594
-595 -95
-595 -488
95 488 595
-596 -95
-596 -491
95 491 596
-597 -95
-597 -494
95 494 597
-598 -95
-598 -497
95 497 598
-599 -95
-599 -500
95 500 599
-600 -95
-600 -503
95 503 600
-601 -95
-601 -506
95 506 601
-602 -95
-602 -509
95 509 602
-603 -95
-603 -512
95 512 603
-604 -95
-604 -515
95 515 604
-605 -95
-605 -518
95 518 605
-606 -95
-606 -521
95 521 606
-607 -95
-607 -524
95 524 607
-608 -95
-608 525
95 -525 608
-609 -60
-609 419
60 -419 609
-610 24
-610 -609
-24 609 610
610
